r = [
0,192,2,305,175,137,197,164,247,80,285,263,58,216,52,44,134,14,316,12,63,156,166,24,129,222,0
];
p = [
0,26,28,13,20,29,20,1,6,10,16,19,18,13,5,12,6,25,11,3,1,26,17,8,24,11,0
];
e = [
0,19,19,20,6,4,12,10,12,12,8,9,6,13,6,19,4,2,9,6,17,3,13,5,6,19,0
];
d = [
0,218,30,403,195,166,264,235,253,159,313,282,125,242,157,56,140,84,327,15,64,204,183,32,153,265,410
];
d_bar = [
0,231,44,410,205,181,274,236,256,164,321,292,134,249,160,62,143,97,333,17,65,217,192,36,165,271,410
];
w = [
0,1.461538462,1.357142857,2.857142857,0.6,0.266666667,1.2,10,4,2.4,1,0.9,0.666666667,1.857142857,2,3.166666667,1.333333333,0.153846154,1.5,3,17,0.230769231,1.444444444,1.25,0.5,3.166666667,0
];
